c Random generated cnf formula, satisfiable: true
p cnf 10 50
10 8 2 0
2 -6 -8 0
6 -7 1 0
-3 -8 10 0
-1 -6 -9 0
7 -9 -4 0
6 7 -2 0
-1 -9 10 0
-8 -9 2 0
-2 -8 -7 0
9 -2 1 0
8 2 -6 0
2 -5 -3 0
9 8 4 0
5 -6 -10 0
7 5 -3 0
9 3 -6 0
-10 -2 5 0
-7 3 -1 0
-7 10 -5 0
3 -5 -6 0
-1 3 7 0
10 5 -3 0
8 10 4 0
-7 1 -3 0
6 8 2 0
10 -6 8 0
3 -6 -7 0
-3 -8 -6 0
-4 8 2 0
-3 -6 -10 0
7 6 3 0
-7 -9 1 0
9 -10 -4 0
7 -8 2 0
-4 -7 10 0
-10 -9 -2 0
4 6 -9 0
4 1 -5 0
-5 -9 7 0
3 2 1 0
1 -4 -10 0
-6 9 -8 0
10 -4 8 0
7 -6 -1 0
-9 2 -7 0
2 10 -8 0
2 4 1 0
8 -7 -4 0
-4 1 -9 0
